426 420 421 422 423 424 425 382 386 387 385 383 384 409 408 407 406 405 404 399 400 403 402 401 360 359 358 357 356 412 411 410 418 419 417 413 414 416 415 351 352 353 355 354 349 350 347 348 361 363 362 346 345 364 365 367 368 369 370 398 397 394 395 396 371 372 373 322 323 324 325 326 327 328 329 366 342 343 344 341 340 339 338 337 336 333 335 334 283 284 285 286 287 280 281 282 279 278 277 276 290 289 288 332 331 330 291 292 275 274 273 272 271 267 268 269 270 293 294 295 296 297 321 320 319 317 318 305 306 304 303 307 308 505 504 503 502 501 498 519 518 520 517 516 515 514 522 521 523 526 492 491 490 486 487 535 534 488 489 531 530 529 528 527 512 513 511 510 509 506 507 508 302 301 241 300 257 256 259 258 299 298 266 265 264 263 262 261 260 255 253 254 252 251 250 249 248 242 243 244 245 247 246 238 239 240 237 236 235 234 232 233 532 533 231 230 229 228 227 189 225 226 190 191 192 219 218 220 221 222 224 223 217 216 215 214 213 212 211 210 209 205 206 207 208 203 204 202 201 200 199 198 197 196 195 194 193 184 183 185 186 188 187 182 179 181 180 178 177 176 540 538 539 537 536 484 485 483 481 480 479 478 477 476 475 482 493 525 524 494 495 471 472 473 474 567 566 565 564 563 562 561 560 549 548 545 546 547 544 543 541 542 107 110 111 109 108 173 174 175 172 170 171 169 168 162 163 167 166 164 165 154 155 159 156 153 157 158 145 146 147 148 152 149 150 151 142 143 144 141 140 139 136 135 134 133 132 131 113 160 161 112 114 115 116 128 129 130 137 138 127 126 125 124 69 70 68 67 66 65 72 71 123 122 120 121 117 106 105 104 103 118 119 73 74 75 76 77 78 62 64 63 60 61 79 80 81 59 58 57 82 83 56 55 53 54 49 48 47 44 43 42 39 40 41 557 552 553 554 556 555 45 46 91 92 50 52 51 84 85 86 87 88 89 90 93 94 97 95 96 98 99 100 102 101 551 550 559 558 34 33 35 38 37 36 32 30 31 29 28 27 26 25 24 22 23 12 13 14 15 16 11 10 9 7 8 17 18 19 20 21 568 569 570 571 573 572 6 5 0 4 3 2 1 456 457 458 459 460 462 463 464 465 466 467 468 469 470 496 497 461 500 499 452 453 440 441 442 446 447 448 449 450 451 312 311 310 309 313 316 314 315 374 375 376 377 378 379 380 393 392 391 388 389 390 381 445 444 443 439 454 455 438 437 436 435 434 433 432 430 431 429 428 427